Set parameter TokenServer to value "hpc-licenses.hpcc.usc.edu"
Set parameter TimeLimit to value 3600
Gurobi Optimizer version 9.5.1 build v9.5.1rc2 (linux64)
Thread count: 20 physical cores, 20 logical processors, using up to 20 threads
Optimize a model with 6007 rows, 4529 columns and 24534 nonzeros
Model fingerprint: 0xa2215243
Variable types: 4506 continuous, 23 integer (23 binary)
Coefficient statistics:
  Matrix range     [1e+00, 1e+00]
  Objective range  [9e-05, 4e+00]
  Bounds range     [1e+00, 1e+00]
  RHS range        [1e+00, 2e+02]
Presolve removed 1520 rows and 1515 columns
Presolve time: 0.09s
Presolved: 4487 rows, 3014 columns, 21975 nonzeros
Variable types: 2994 continuous, 20 integer (20 binary)
Found heuristic solution: objective 265.5480286
Found heuristic solution: objective 266.4272159

Root relaxation: objective 2.797620e+02, 2992 iterations, 0.09 seconds (0.11 work units)

    Nodes    |    Current Node    |     Objective Bounds      |     Work
 Expl Unexpl |  Obj  Depth IntInf | Incumbent    BestBd   Gap | It/Node Time

     0     0  279.76200    0    2  266.42722  279.76200  5.01%     -    0s
     0     0  279.69783    0    2  266.42722  279.69783  4.98%     -    0s
H    0     0                     267.4178619  279.69783  4.59%     -    0s
     0     0  279.61717    0    2  267.41786  279.61717  4.56%     -    0s
     0     0  278.37601    0    5  267.41786  278.37601  4.10%     -    0s
     0     0  277.57514    0    8  267.41786  277.57514  3.80%     -    0s
     0     0  277.57514    0    8  267.41786  277.57514  3.80%     -    0s
     0     0  277.57514    0    8  267.41786  277.57514  3.80%     -    0s
     0     0  277.57514    0    8  267.41786  277.57514  3.80%     -    0s
     0     0  277.57514    0    8  267.41786  277.57514  3.80%     -    0s
     0     0  277.56956    0    8  267.41786  277.56956  3.80%     -    0s
     0     0  277.56956    0    8  267.41786  277.56956  3.80%     -    0s
     0     0  277.56956    0    8  267.41786  277.56956  3.80%     -    0s
     0     0  277.56956    0    8  267.41786  277.56956  3.80%     -    0s
H    0     0                     269.5887998  277.56956  2.96%     -    0s
     0     0  277.24818    0    8  269.58880  277.24818  2.84%     -    0s
     0     0  277.24818    0    8  269.58880  277.24818  2.84%     -    0s
     0     0  277.24818    0    8  269.58880  277.24818  2.84%     -    0s
     0     0  277.11338    0    8  269.58880  277.11338  2.79%     -    0s
     0     0  277.11338    0    8  269.58880  277.11338  2.79%     -    0s
     0     0  277.11338    0    8  269.58880  277.11338  2.79%     -    0s
     0     0  277.11338    0    8  269.58880  277.11338  2.79%     -    0s
     0     0  277.11338    0    8  269.58880  277.11338  2.79%     -    0s
     0     0  277.11338    0    8  269.58880  277.11338  2.79%     -    0s
     0     0  277.11338    0    8  269.58880  277.11338  2.79%     -    0s
     0     0  277.11338    0    8  269.58880  277.11338  2.79%     -    0s
     0     0  277.11338    0    8  269.58880  277.11338  2.79%     -    0s
     0     0  277.11338    0    8  269.58880  277.11338  2.79%     -    1s
     0     0  277.11338    0    8  269.58880  277.11338  2.79%     -    1s
     0     0  277.11338    0    8  269.58880  277.11338  2.79%     -    1s
     0     0  276.85974    0    8  269.58880  276.85974  2.70%     -    1s
     0     0  276.85974    0    2  269.58880  276.85974  2.70%     -    1s
     0     0  276.85974    0    2  269.58880  276.85974  2.70%     -    1s
     0     0  276.85974    0    3  269.58880  276.85974  2.70%     -    1s
     0     0  276.85974    0    3  269.58880  276.85974  2.70%     -    1s
     0     0  276.85974    0    3  269.58880  276.85974  2.70%     -    1s
     0     0  276.85974    0    3  269.58880  276.85974  2.70%     -    1s
     0     0  276.85974    0    5  269.58880  276.85974  2.70%     -    1s
     0     0  276.85974    0    3  269.58880  276.85974  2.70%     -    1s
     0     0  276.85974    0    4  269.58880  276.85974  2.70%     -    1s
     0     0  276.85974    0    5  269.58880  276.85974  2.70%     -    1s
     0     0  276.85974    0    5  269.58880  276.85974  2.70%     -    1s
     0     0  276.85974    0    5  269.58880  276.85974  2.70%     -    2s
     0     0  276.85974    0    6  269.58880  276.85974  2.70%     -    2s
     0     0  276.85974    0    7  269.58880  276.85974  2.70%     -    2s
     0     0  276.85974    0    4  269.58880  276.85974  2.70%     -    2s
     0     0  276.85974    0    7  269.58880  276.85974  2.70%     -    2s
     0     0  276.85974    0    7  269.58880  276.85974  2.70%     -    2s
     0     0  276.85974    0    7  269.58880  276.85974  2.70%     -    2s
     0     0  276.85974    0    7  269.58880  276.85974  2.70%     -    2s
H    0     0                     271.3740413  276.85974  2.02%     -    2s
     0     0  276.85974    0    7  271.37404  276.85974  2.02%     -    2s
     0     0  276.85974    0    7  271.37404  276.85974  2.02%     -    2s
     0     0  276.85974    0    7  271.37404  276.85974  2.02%     -    2s
     0     0  276.85974    0    7  271.37404  276.85974  2.02%     -    2s
     0     0  276.85974    0    7  271.37404  276.85974  2.02%     -    2s
     0     0  276.85974    0    7  271.37404  276.85974  2.02%     -    2s
     0     0  276.85974    0    7  271.37404  276.85974  2.02%     -    2s
     0     0  276.85974    0    7  271.37404  276.85974  2.02%     -    2s
     0     0  276.77165    0    9  271.37404  276.77165  1.99%     -    2s
     0     0  276.74876    0    9  271.37404  276.74876  1.98%     -    2s
     0     0  276.74089    0    9  271.37404  276.74089  1.98%     -    2s
     0     0  276.72099    0    8  271.37404  276.72099  1.97%     -    2s
     0     0  276.71591    0    8  271.37404  276.71591  1.97%     -    2s
     0     0  276.71422    0    8  271.37404  276.71422  1.97%     -    2s
     0     0  276.71399    0    7  271.37404  276.71399  1.97%     -    2s
     0     0  275.51531    0    7  271.37404  275.51531  1.53%     -    3s
     0     0  275.51531    0    8  271.37404  275.51531  1.53%     -    3s
     0     0  274.86233    0    7  271.37404  274.86233  1.29%     -    3s
     0     0  274.48840    0    6  271.37404  274.48840  1.15%     -    3s
     0     0  274.30795    0    6  271.37404  274.30795  1.08%     -    3s
     0     0  274.30795    0    7  271.37404  274.30795  1.08%     -    3s
     0     0  274.30795    0    6  271.37404  274.30795  1.08%     -    3s
     0     0  274.30795    0    6  271.37404  274.30795  1.08%     -    3s
     0     0  271.86627    0    6  271.37404  271.86627  0.18%     -    3s
     0     0  271.86627    0    6  271.37404  271.86627  0.18%     -    4s
     0     2  271.86627    0    6  271.37404  271.86627  0.18%     -    4s
     3     2  271.86627    2    7  271.37404  271.86627  0.18%   223    5s

Cutting planes:
  MIR: 491
  Flow cover: 152
  RLT: 10
  Relax-and-lift: 9

Explored 37 nodes (15583 simplex iterations) in 7.73 seconds (3.90 work units)
Thread count was 20 (of 20 available processors)

Solution count 5: 271.374 269.589 267.418 ... 265.548

Optimal solution found (tolerance 1.00e-04)
Best objective 2.713740412989e+02, best bound 2.713740412989e+02, gap 0.0000%



#########node  1
V1.6
#########node  2
0.1326530612244898,0.8673469387755102
#########node  3
1.0,0.0


Total Solving Time 8.099865913391113
obj value 271.37404129892155
Policy Regret train (Sum) 7.333573780976075
Best Treatment Found train (%) 64.2
treatment classification acc train (%) 81.8
Policy Regret test (Sum) 28.73848887990478
Best Treatment Found test (%) 83.74000000000001
treatment classification acc test (%) 82.0
